
























































































76 13 15 
47 20 50 
12 40 66 25 
22 43 16 
23 8 3 
26 17 63 
41 55 7 65 
53 48 33 
10 38 0 
56 37 61 
35 59 58 24 
34 45 14 
21 46 6 
30 29 49 
4 11 18 
73 67 2 
54 9 27 
28 36 68 
52 42 74 
57 62 1 

75 32 70 
69 72 71 
64 39 19 
51 31 44 
60 5 
